results/x-10M/X-n129-k18.vrp_seed-7.vrp.sol
Route #1: 47 127 28 118 38
Route #2: 3
Route #3: 64 18 59 23 1 44 90
Route #4: 53 70 14 99 42 69 97 31 125 24
Route #5: 87 121 94 111 4 98 68 80
Route #6: 78 50 52 27 113 88 86
Route #7: 119 5 106 122 115 117 74
Route #8: 20 63 9 7 124 82
Route #9: 16 12 96 95 116 92 49 73 114 32
Route #10: 62 56 13 57 35 77 60
Route #11: 19 6 48 2 34 21 33 46 22 54
Route #12: 45 29 36 81 128
Route #13: 102 112 72 100 108 26 123
Route #14: 83 109 51 120 8 37
Route #15: 91 75 103 89 66 15
Route #16: 107 65 105 76 79 10 104 71
Route #17: 126 11 85 61 41 55 40 58 101 17 110
Route #18: 67 30 43 84 25 39 93
Cost 28948.000000